(set-logic QF_S)
(declare-fun var0 () String)
(declare-fun var1 () Int)
(declare-fun var2 () Bool)
(declare-fun var3 () String)
(declare-fun var4 () Int)
(declare-fun var5 () Bool)
(declare-fun var6 () String)
(declare-fun var7 () Int)
(declare-fun var8 () Bool)
(assert (<= (str.indexof "6uN.6L(`G{" var3 var1) (str.indexof var0 var0 var4)))
(assert (not (str.suffixof "k-<2f>P*en" var0)))
(assert (not (str.prefixof var0 var6)))
(assert (str.contains (str.at var0 var1) (str.replace var3 var6 var3)))
(check-sat)